
  32    4
  10   10   10   10

   0   0   0   0   0   2 2 5 
   9  10  10  10  10   3 21 7 3 
   6  10  10  10  10   2 8 4 
   8  10  10  10  10   2 10 6 
   5  10  10  10  10   2 10 6 
   7  10  10  10  10   3 22 12 9 
   5  10  10  10  10   3 14 12 10 
   3  10  10  10  10   2 14 9 
   1  10  10  10  10   2 15 11 
   3  10  10  10  10   3 22 15 13 
   3  10  10  10  10   2 20 13 
   4  10  10  10  10   2 20 15 
   8  10  10  10  10   2 31 16 
  10  10  10  10  10   3 30 22 18 
   5  10  10  10  10   2 31 17 
   7  10  10  10  10   1 17 
   6  10  10  10  10   2 30 18 
   2  10  10  10  10   1 19 
   4  10  10  10  10   3 29 25 23 
   7  10  10  10  10   2 29 23 
   5  10  10  10  10   2 27 23 
   7  10  10  10  10   2 31 24 
   9  10  10  10  10   1 24 
   3  10  10  10  10   1 26 
   9  10  10  10  10   1 27 
   7  10  10  10  10   1 28 
  10  10  10  10  10   1 28 
   2  10  10  10  10   1 32
   1  10  10  10  10   1 32
   7  10  10  10  10   1 32
   5  10  10  10  10   1 32
   0   0   0   0   0   0 
